NAME : att48.tsp
COMMENT : Optimal tour for att48.tsp
TYPE : TOUR
DIMENSION : 48
Total Length: 35398.080458354496
TOUR_SECTION
1
8
9
38
31
44
18
7
28
6
37
19
27
17
43
30
36
46
33
20
47
21
13
23
11
12
15
40
22
16
3
34
14
25
39
32
48
5
42
24
10
45
35
4
26
2
29
41
-1
EOF
